WARNING: for repeatability, setting FPU to use double precision
============================[ Problem Statistics ]=============================
|                                                                             |
|  Number of variables:            50                                         |
|  Number of clauses:             218                                         |
|  Parse time:                   0.00 s                                       |
|                                                                             |
============================[ Search Statistics ]==============================
| Conflicts |          ORIGINAL         |          LEARNT          | Progress |
|           |    Vars  Clauses Literals |    Limit  Clauses Lit/Cl |          |
===============================================================================
===============================================================================
restarts              : 1
conflicts             : 49             (34362 /sec)
decisions             : 58             (0.00 % random) (40673 /sec)
propagations          : 606            (424965 /sec)
conflict literals     : 160            (18.37 % deleted)
Memory used           : 20.00 MB
CPU time              : 0.001426 s

UNSATISFIABLE
